NAME: kroA100.heu.tour
TYPE: TOUR
COMMENT: Heuristic tour (Lin-Kernighan), length 21961.67
DIMENSION: 100
TOUR_SECTION
1
63
6
49
90
19
75
92
8
42
89
31
80
56
97
4
65
26
66
70
22
94
16
88
53
79
18
24
38
99
36
84
10
72
21
74
59
17
15
11
32
45
91
98
23
77
60
62
35
86
27
20
12
55
83
46
43
3
41
71
100
48
14
29
34
7
9
57
87
51
61
25
81
68
85
39
30
96
78
52
5
37
33
76
13
95
82
50
73
44
2
54
40
64
69
58
67
28
93
47
-1
EOF
